============================[ Problem Statistics ]=============================|                                                                             ||  Number of variables:          4242                                         ||  Number of clauses:            9708                                         ||  Parse time:                   0.12 s                                       ||                                                                             |============================[ Search Statistics ]==============================| Conflicts |          ORIGINAL         |          LEARNT          | Progress ||           |    Vars  Clauses Literals |    Limit  Clauses Lit/Cl |          |==============================================================================================================================================================restarts              : 1conflicts             : 69             (369 /sec)decisions             : 154            (0.00 % random) (824 /sec)propagations          : 8175           (43717 /sec)conflict literals     : 3359           (95.94 % deleted)CPU time              : 0.187 sSATISFIABLE